--@
extension = "inp"
--@
! DLPNO-CCSD(T) gCP(HF/TZ) def2-TZVP def2-TZVP/C TightSCF defgrid3  

%pal
 nprocs {{ nprocs }}
end

{% if solvation -%}
%cpcm
 smd true
 smdsolvent "{{ solvent }}"
end

{% endif -%} 

*xyz {{ charge }} {{ mult }}
{{ print_molecule(molecule = Molecule) }}
*
