--@
extension = "inp"
--@
! XTB GOAT ALPB({{ solvent }})

%pal
 nprocs {{ nprocs }}
end

%maxcore {{ memory }} 

*xyz {{ charge }} {{ mult }}
{{ print_molecule(molecule = Molecule) }}
*
