--@
extension = "inp"
--@
! XTB2 numfreq

{% if solvation -%}
! ALPB({{ solvent }})

{% endif -%} 

%pal
  nprocs {{ nprocs }}
end

*xyz {{ charge }} {{ mult }}
{{ print_molecule(molecule=Molecule) }}
*
