--@
extension = "inp"
--@
! {{ level }} {{ basis_set }} 
! Opt numfreq D3BJ sarc/j

%pal
 nprocs {{ nprocs }}
end

%geom
 maxiter {{ maxiter }}
end

%maxcore {{ memory }} 

{% if solvation -%}
%cpcm
 smd true
 smdsolvent "{{ solvent }}"
end

{% endif -%} 

{% if start_hessian -%}
%Geom
 InHess Read
 InHessName "{{ Molecule.filename }}.hess"
end

{% endif -%} 

*xyz {{ charge }} {{ mult }}
{{ print_molecule(molecule = Molecule) }}
*
