--@
extension = "inp"
--@
! {{ level }} {{ basis_set }} 
! OptTS {{ dispersion }} tightscf slowconv numfreq
{% if zora -%}
! ZORA

{% for atom in zoraatoms -%}
%basis
 NewGTO {{ atom }} "{{ zora_basis }}" end
 newAuxGTO {{ atom }} "{{ zora_aux_basis }}" end
end

{% endfor -%}

{% endif -%} 

%pal
 nprocs {{ nprocs }}
end

%maxcore {{ memory }} 

%geom
 Calc_Hess true
 numhess true
 recalc_hess 20
 TS_active_atoms { {{ ts_active_atoms }} } end
 TS_active_atoms_factor {{ ts_active_atoms_factor }} #factor to increase cutoff bond for above defined atoms
end

{% if solvation -%}
%cpcm
 smd true
 smdsolvent "{{ solvent }}"
end

{% endif -%} 

*xyz {{ charge }} {{ mult }}
{{ print_molecule(molecule=Molecule) }}
*
