--@
extension = "inp"
--@
! {{ level }} {{ basis_set }} 
! OptTS D3BJ tightscf slowconv numfreq

%pal
 nprocs {{ nprocs }}
end

%maxcore {{ memory }} 

%geom
 Calc_Hess true
 TS_active_atoms { 29 2 15 } end
 TS_active_atoms_factor 1.5 #factor to increase cutoff bond for above defined atoms
end

{% if solvation -%}
%cpcm
 smd true
 smdsolvent "{{ solvent }}"
end

{% endif -%} 

{% if start_hessian -%}
%Geom
 InHess Read
 InHessName "{{ molecule.filename }}.hess"
end

{% endif -%} 

*xyz {{ charge }} {{ mult }}
{{ print_molecule(molecule=Molecule) }}
*
