--@
extension = "inp"
--@
! XTB ALPB({{ solvent }})

%solvator nsolv 5 end

%pal
 nprocs {{ nprocs }}
end

%maxcore {{ memory }} 

*xyz {{ charge }} {{ mult }}
{{ print_molecule(molecule = Molecule) }}
*
