--@
extension = "inp"
--@
! {{ level }} {{ basis_set }} 
! IRC D3BJ KDIIS SOSCF numfreq tightscf

%pal
 nprocs {{ nprocs }}
end

%maxcore {{ memory }} 

{% if solvation -%}
%cpcm
 smd true
 smdsolvent "{{ solvent }}"
end

{% endif -%} 

%Geom
 InHess Read
 InHessName "{{ Molecule.filename }}.hess"
 printinternalhess true
end

*xyz {{ charge }} {{ mult }}
{{ print_molecule(molecule=Molecule) }}
*
